6566787691790626343505,13,1,2,03,2,1,2,014,12,1,2,06,10,1,2,011,14,1,2,04,5,1,2,06,14,1,2,010,11,1,2,015,12,1,2,01,10,1,2,011,13,1,2,015,1,1,2,010,3,1,2,010,4,1,2,02,9,1,2,05,1,1,2,08,15,1,2,07,13,1,2,011,1,1,2,011,8,1,2,011,11,1,2,09,4,1,2,07,13,1,2,012,11,1,2,07,6,1,2,015,4,1,2,015,4,1,2,07,6,1,2,06,9,1,2,012,15,1,2,03,9,1,2,02,5,1,2,08,13,1,2,04,5,1,2,011,14,1,2,04,7,1,2,011,5,1,2,05,10,1,2,03,12,1,2,09,8,1,2,011,5,1,2,06,11,1,2,07,3,1,2,02,10,1,2,06,4,1,2,05,4,1,2,06,9,1,2,010,6,1,2,06,11,1,2,05,5,1,2,0